(declare-const i Int)
(declare-const n Int)
(declare-const j Int)
(assert (exists
         ((|a.Top@width'?1| Int) (|a.Top@pos'?2| Int) (|j'?3| Int)
            (|a.Top'?4| Int) (store?5 Int) (store?6 Int) (store?7 Int)
            (|w'?8| Real) (tr?9 Int) (|k'?10| Int) (K?11 Int) (|w'?12| Real)
            (|k'?13| Int))
         (and (<= (+ (- j) 1) 0) (<= (- i) 0) (<= (+ (- n) 1) 0)
                (<= (+ (- n) j) 0) (= (+ |k'?10| (- K?11)) 0)
                (or (and (= K?11 0) (= (+ (- |w'?8|) tr?9) 0)
                           (= (- |k'?10|) 0))
                      (and (<= (+ (- K?11) 1) 0) (<= (- i) 0)
                             (<= (+ (- |k'?10|) 1) 0)
                             (<= (+ |k'?10| (- i) -1) 0))) (<= (- K?11) 0)
                (<= (- |k'?10|) 0) (<= (- i) 0) (<= (+ (- |k'?10|) i 1) 0)
                (= (+ (- store?5) |a.Top@width'?1|) 0)
                (= (+ (- store?6) |a.Top@pos'?2|) 0)
                (= (+ |w'?12| (- |w'?8|)) 0) (= (+ |k'?13| (- |k'?10|)) 0)
                (= (+ |j'?3| (- j) -1) 0) (= (+ (- store?7) |a.Top'?4|) 0))))
(check-sat)
